25 
300 
10.5 14.4 0 0
11.2 14.1 0 -18
18 15.9 -10 -134
18.3 13.3 10 -20
16.5 9.3 -10 -100
15.4 11 10 -12
14.9 13.2 5 -29
16.3 13.3 -5 -124
16.4 17.8 -5 -70
15 17.9 -5 -136
16.1 19.6 -10 -123
15.7 20.6 10 -26
13.2 20.1 -10 -91
14.3 15.3 -5 -99
14 5.1 -10 -129
11.4 6.7 15 -27
8.3 5 -15 -129
7.9 9.8 10 -16
11.4 12 -5 -119
11.2 17.6 5 -14
10.1 18.7 5 -21
11.7 20.3 10 -10
10.2 22.1 10 -17
9.7 23.8 -10 -93
10.1 26.4 15 -13
7.4 24 15 -18
8.2 19.9 -15 -123
8.7 17.7 -10 -130
8.9 13.6 10 -25
5.6 11.1 -10 -75
4.9 18.9 10 -29
7.3 18.8 -10 -122
